c Random CNF formula
p cnf 30 25
13 23 -12 0
-27 -16 1 0
-27 14 12 0
12 -5 -29 0
25 -29 -12 0
3 -27 20 0
8 -24 -21 0
-27 28 2 0
15 -13 11 0
-16 13 -19 0
4 -21 17 0
-28 2 27 0
2 10 -14 0
4 3 -20 0
17 -28 -11 0
-18 28 -11 0
-18 15 -29 0
23 16 -4 0
-18 -2 -26 0
16 -10 -6 0
-20 -30 -8 0
-13 19 -23 0
-21 -26 -2 0
14 -30 23 0
-1 -3 12 0
